21° run output:
{
    "Function": "ClusterA300.tsp",
    "Problem dimension": [
        20,
        84,
        298,
        167,
        44,
        182,
        104,
        216,
        290,
        55,
        143,
        150,
        29,
        296,
        75,
        203,
        188,
        136,
        10,
        7,
        86,
        81,
        70,
        237,
        176,
        205,
        2,
        4,
        228,
        97,
        154,
        226,
        122,
        6,
        159,
        105,
        110,
        221,
        222,
        183,
        69,
        210,
        206,
        146,
        121,
        198,
        220,
        101,
        72,
        96,
        107,
        284,
        268,
        231,
        254,
        24,
        131,
        8,
        238,
        148,
        294,
        67,
        160,
        227,
        30,
        61,
        247,
        140,
        192,
        68,
        177,
        12,
        288,
        79,
        41,
        114,
        248,
        43,
        187,
        212,
        249,
        175,
        123,
        33,
        88,
        139,
        125,
        73,
        113,
        260,
        204,
        274,
        232,
        197,
        106,
        62,
        286,
        281,
        77,
        64,
        186,
        89,
        292,
        243,
        45,
        66,
        277,
        9,
        280,
        189,
        127,
        223,
        201,
        275,
        287,
        253,
        109,
        74,
        209,
        245,
        215,
        135,
        266,
        194,
        158,
        165,
        13,
        144,
        184,
        60,
        169,
        126,
        63,
        137,
        83,
        236,
        256,
        103,
        118,
        242,
        181,
        168,
        102,
        196,
        152,
        200,
        202,
        157,
        172,
        18,
        16,
        38,
        28,
        241,
        156,
        199,
        185,
        217,
        56,
        164,
        225,
        39,
        283,
        116,
        141,
        128,
        71,
        112,
        267,
        147,
        36,
        17,
        265,
        35,
        54,
        233,
        153,
        244,
        37,
        94,
        52,
        285,
        120,
        19,
        58,
        76,
        78,
        21,
        5,
        129,
        163,
        46,
        161,
        276,
        250,
        27,
        95,
        234,
        208,
        145,
        82,
        230,
        53,
        3,
        99,
        195,
        257,
        261,
        119,
        80,
        130,
        239,
        48,
        219,
        258,
        179,
        278,
        132,
        293,
        162,
        218,
        57,
        92,
        174,
        251,
        262,
        0,
        98,
        191,
        213,
        229,
        1,
        124,
        259,
        47,
        178,
        171,
        170,
        32,
        155,
        193,
        42,
        115,
        108,
        173,
        85,
        166,
        22,
        51,
        252,
        117,
        59,
        49,
        34,
        26,
        23,
        214,
        40,
        255,
        295,
        269,
        180,
        273,
        151,
        211,
        149,
        90,
        240,
        272,
        271,
        87,
        50,
        111,
        31,
        289,
        11,
        264,
        91,
        142,
        282,
        299,
        207,
        100,
        65,
        246,
        263,
        138,
        133,
        270,
        224,
        15,
        134,
        14,
        291,
        235,
        25,
        297,
        190,
        279,
        93
    ],
    "Global Optimum": 0,
    "Algorithm": "Genetic algorithm",
    "Parameters": {
        "population": 30,
        "offspring": 30,
        "mutation probability": 0.0033333333333333335,
        "crossover probability": 0.9
    },
    "Fitness": 368615,
    "Solution": [
        20,
        84,
        298,
        167,
        44,
        182,
        104,
        216,
        290,
        55,
        143,
        150,
        29,
        296,
        75,
        203,
        188,
        136,
        10,
        7,
        86,
        81,
        70,
        237,
        176,
        205,
        2,
        4,
        228,
        97,
        154,
        226,
        122,
        6,
        159,
        105,
        110,
        221,
        222,
        183,
        69,
        210,
        206,
        146,
        121,
        198,
        220,
        101,
        72,
        96,
        107,
        284,
        268,
        231,
        254,
        24,
        131,
        8,
        238,
        148,
        294,
        67,
        160,
        227,
        30,
        61,
        247,
        140,
        192,
        68,
        177,
        12,
        288,
        79,
        41,
        114,
        248,
        43,
        187,
        212,
        249,
        175,
        123,
        33,
        88,
        139,
        125,
        73,
        113,
        260,
        204,
        274,
        232,
        197,
        106,
        62,
        286,
        281,
        77,
        64,
        186,
        89,
        292,
        243,
        45,
        66,
        277,
        9,
        280,
        189,
        127,
        223,
        201,
        275,
        287,
        253,
        109,
        74,
        209,
        245,
        215,
        135,
        266,
        194,
        158,
        165,
        13,
        144,
        184,
        60,
        169,
        126,
        63,
        137,
        83,
        236,
        256,
        103,
        118,
        242,
        181,
        168,
        102,
        196,
        152,
        200,
        202,
        157,
        172,
        18,
        16,
        38,
        28,
        241,
        156,
        199,
        185,
        217,
        56,
        164,
        225,
        39,
        283,
        116,
        141,
        128,
        71,
        112,
        267,
        147,
        36,
        17,
        265,
        35,
        54,
        233,
        153,
        244,
        37,
        94,
        52,
        285,
        120,
        19,
        58,
        76,
        78,
        21,
        5,
        129,
        163,
        46,
        161,
        276,
        250,
        27,
        95,
        234,
        208,
        145,
        82,
        230,
        53,
        3,
        99,
        195,
        257,
        261,
        119,
        80,
        130,
        239,
        48,
        219,
        258,
        179,
        278,
        132,
        293,
        162,
        218,
        57,
        92,
        174,
        251,
        262,
        0,
        98,
        191,
        213,
        229,
        1,
        124,
        259,
        47,
        178,
        171,
        170,
        32,
        155,
        193,
        42,
        115,
        108,
        173,
        85,
        166,
        22,
        51,
        252,
        117,
        59,
        49,
        34,
        26,
        23,
        214,
        40,
        255,
        295,
        269,
        180,
        273,
        151,
        211,
        149,
        90,
        240,
        272,
        271,
        87,
        50,
        111,
        31,
        289,
        11,
        264,
        91,
        142,
        282,
        299,
        207,
        100,
        65,
        246,
        263,
        138,
        133,
        270,
        224,
        15,
        134,
        14,
        291,
        235,
        25,
        297,
        190,
        279,
        93
    ],
    "Nb of functions evaluations": 50010,
    "Computational time in seconds": 167.03628301620483,
    "Stopping criterion in evaluations": 50000
}